GLPSOL: GLPK LP/MIP Solver, v4.65
Parameter(s) specified in the command line:
 --model solver_drone.mod --data solver_drone_data_10.dat --output solver_drone_solution_10_4.log
 --log solver_drone_cmd_output_10_4.log --tmlim 25
Reading model section from solver_drone.mod...
41 lines were read
Reading data section from solver_drone_data_10.dat...
37 lines were read
Generating f...
Generating package_deliverd_once...
Generating package_well_delivered...
Generating time_spent_flying...
Generating autonomy_not_exceeded...
Generating check_time_max...
Model has been successfully generated
GLPK Integer Optimizer, v4.65
699 rows, 665 columns, 2053 non-zeros
665 integer variables, 660 of which are binary
Preprocessing...
38 rows, 665 columns, 1392 non-zeros
665 integer variables, 660 of which are binary
Scaling...
 A: min|aij| =  1.000e+00  max|aij| =  1.544e+03  ratio =  1.544e+03
GM: min|aij| =  5.566e-01  max|aij| =  1.797e+00  ratio =  3.228e+00
EQ: min|aij| =  3.098e-01  max|aij| =  1.000e+00  ratio =  3.228e+00
2N: min|aij| =  2.969e-01  max|aij| =  1.516e+00  ratio =  5.105e+00
Constructing initial basis...
Size of triangular part is 38
Solving LP relaxation...
GLPK Simplex Optimizer, v4.65
38 rows, 665 columns, 1392 non-zeros
      0: obj =   0.000000000e+00 inf =   3.524e+02 (1)
     40: obj =   2.819000000e+03 inf =   5.641e-15 (0)
*    44: obj =   2.819000000e+03 inf =   6.333e-15 (0)
OPTIMAL LP SOLUTION FOUND
Integer optimization begins...
Long-step dual simplex will be used
+    44: mip =     not found yet >=              -inf        (1; 0)
+   132: >>>>>   2.920000000e+03 >=   2.819000000e+03   3.5% (30; 0)
+   348: >>>>>   2.888000000e+03 >=   2.819000000e+03   2.4% (72; 28)
+   566: >>>>>   2.868000000e+03 >=   2.819000000e+03   1.7% (107; 52)
+   593: >>>>>   2.856000000e+03 >=   2.819000000e+03   1.3% (115; 55)
+  1050: >>>>>   2.852000000e+03 >=   2.819000000e+03   1.2% (192; 112)
+  8785: >>>>>   2.848000000e+03 >=   2.819000000e+03   1.0% (874; 1083)
+ 52034: mip =   2.848000000e+03 >=   2.819000000e+03   1.0% (3724; 8046)
+ 89283: mip =   2.848000000e+03 >=   2.819000000e+03   1.0% (5812; 14626)
+122258: mip =   2.848000000e+03 >=   2.819000000e+03   1.0% (8010; 19939)
+148063: mip =   2.848000000e+03 >=   2.819000000e+03   1.0% (9216; 24737)
+165221: mip =   2.848000000e+03 >=   2.819000000e+03   1.0% (10927; 27167)
TIME LIMIT EXCEEDED; SEARCH TERMINATED
Time used:   25.0 secs
Memory used: 19.4 Mb (20313034 bytes)
The package 1 is delivered by the drone 2 to the house 1
The package 2 is delivered by the drone 2 to the house 1
The package 3 is delivered by the drone 2 to the house 1
The package 4 is delivered by the drone 3 to the house 2
The package 5 is delivered by the drone 4 to the house 2
The package 6 is delivered by the drone 4 to the house 2
The package 7 is delivered by the drone 2 to the house 3
The package 8 is delivered by the drone 4 to the house 4
The package 9 is delivered by the drone 3 to the house 6
The package 10 is delivered by the drone 4 to the house 7
The package 11 is delivered by the drone 3 to the house 8
The package 12 is delivered by the drone 3 to the house 8
The package 13 is delivered by the drone 1 to the house 9
The package 14 is delivered by the drone 1 to the house 10
The package 15 is delivered by the drone 1 to the house 10
Model has been successfully processed
Writing MIP solution to 'solver_drone_solution_10_4.log'...
